(set-option :produce-models true); benchmark generated from python API
(set-info :status unknown)
(declare-fun l_0_0_6 () Real)
(declare-fun l_0_0_5 () Real)
(declare-fun l_0_0_3 () Real)
(declare-fun l_0_0_2 () Real)
(declare-fun l_0_0_1 () Real)
(declare-fun _a_0_ () Real)
(declare-fun l_0_0_4 () Real)
(declare-fun _a_1_ () Real)
(declare-fun _a_2_ () Real)
(declare-fun l_0_1_8 () Real)
(declare-fun l_0_1_7 () Real)
(declare-fun l_0_1_4 () Real)
(declare-fun l_0_1_5 () Real)
(declare-fun l_0_1_1 () Real)
(declare-fun l_0_1_2 () Real)
(declare-fun l_0_1_9 () Real)
(declare-fun l_0_1_6 () Real)
(declare-fun l_0_1_3 () Real)
(declare-fun l_0_2_9 () Real)
(declare-fun l_0_2_8 () Real)
(declare-fun l_0_2_6 () Real)
(declare-fun l_0_2_5 () Real)
(declare-fun l_0_2_4 () Real)
(declare-fun l_0_2_2 () Real)
(declare-fun l_0_2_1 () Real)
(declare-fun l_0_2_3 () Real)
(declare-fun l_0_2_7 () Real)
(assert
 (let ((?x47 (* l_0_0_6 l_0_0_6)))
 (let ((?x45 (* l_0_0_5 l_0_0_5)))
 (let ((?x36 (* l_0_0_1 l_0_0_1)))
 (let ((?x41 (- (+ (- _a_0_ (* (* 4.0 l_0_0_1) l_0_0_2)) ?x36) (* (* 3.0 l_0_0_2) l_0_0_2))))
 (= (- (- (- ?x41 (* (* 3.0 l_0_0_3) l_0_0_3)) ?x45) ?x47) 0.0))))))
(assert
 (let ((?x101 (* l_0_0_4 l_0_0_4)))
 (= (- (- _a_1_ (* (* 3.0 l_0_0_1) l_0_0_1)) ?x101) 0.0)))
(assert
 (let ((?x120 (- (- _a_2_ (* (* 6.0 l_0_0_1) l_0_0_2)) (* (* 2.0 l_0_0_1) l_0_0_1))))
 (= (- ?x120 (* (* 2.0 l_0_0_4) l_0_0_5)) 0.0)))
(assert
 (let ((?x147 (- (* (* 2.0 l_0_0_1) l_0_0_2) (* (* 2.0 l_0_0_2) l_0_0_2))))
 (= (- ?x147 (* (* 2.0 l_0_0_3) l_0_0_3)) 0.0)))
(assert
 (= (+ (* l_0_0_2 l_0_0_2) (* l_0_0_3 l_0_0_3)) 0.0))
(assert
 (>= l_0_0_1 0.0))
(assert
 (>= l_0_0_3 0.0))
(assert
 (>= l_0_0_4 0.0))
(assert
 (>= l_0_0_6 0.0))
(assert
 (let ((?x180 (* l_0_1_4 l_0_1_4)))
 (let ((?x182 (* (/ 3.0 2.0) ?x180)))
 (let ((?x175 (- (* (* (* (- 2.0) _a_1_) l_0_1_1) l_0_1_2) (* (* _a_2_ l_0_1_1) l_0_1_1))))
 (let ((?x186 (- (+ (+ ?x175 (* (* 14.0 l_0_1_4) l_0_1_5)) ?x182) (* (* 2.0 l_0_1_7) l_0_1_8))))
 (= (+ ?x186 8.0) 0.0))))))
(assert
 (let ((?x232 (* l_0_1_9 l_0_1_9)))
 (let ((?x230 (* l_0_1_8 l_0_1_8)))
 (let ((?x227 (* l_0_1_6 l_0_1_6)))
 (let ((?x228 (* 7.0 ?x227)))
 (let ((?x223 (* l_0_1_5 l_0_1_5)))
 (let ((?x225 (* 7.0 ?x223)))
 (let ((?x180 (* l_0_1_4 l_0_1_4)))
 (let ((?x214 (- (* (* (- _a_0_) l_0_1_1) l_0_1_1) (* _a_1_ (+ (* l_0_1_2 l_0_1_2) (* l_0_1_3 l_0_1_3))))))
 (let ((?x221 (+ (- ?x214 (* (* (* 2.0 _a_2_) l_0_1_1) l_0_1_2)) (* (* 3.0 l_0_1_4) l_0_1_5))))
 (= (- (- (- (+ (+ (- ?x221 ?x180) ?x225) ?x228) ?x230) ?x232) 1.0) 0.0)))))))))))
(assert
 (let ((?x284 (* l_0_1_7 l_0_1_7)))
 (let ((?x180 (* l_0_1_4 l_0_1_4)))
 (let ((?x282 (* 7.0 ?x180)))
 (= (- (- (+ (* (* (- _a_1_) l_0_1_1) l_0_1_1) ?x282) ?x284) 15.0) 0.0)))))
(assert
 (let ((?x305 (- (* (* (* (- 2.0) _a_0_) l_0_1_1) l_0_1_2) (* _a_2_ (+ (* l_0_1_2 l_0_1_2) (* l_0_1_3 l_0_1_3))))))
 (let ((?x310 (+ (- ?x305 (* (* 2.0 l_0_1_4) l_0_1_5)) (* (/ 3.0 2.0) (* l_0_1_5 l_0_1_5)))))
 (= (+ ?x310 (* (/ 3.0 2.0) (* l_0_1_6 l_0_1_6))) 0.0))))
(assert
 (let ((?x227 (* l_0_1_6 l_0_1_6)))
 (let ((?x223 (* l_0_1_5 l_0_1_5)))
 (let ((?x340 (- (* (- _a_0_) (+ (* l_0_1_2 l_0_1_2) (* l_0_1_3 l_0_1_3))) ?x223)))
 (= (- ?x340 ?x227) 0.0)))))
(assert
 (>= l_0_1_1 0.0))
(assert
 (>= l_0_1_3 0.0))
(assert
 (>= l_0_1_4 0.0))
(assert
 (>= l_0_1_6 0.0))
(assert
 (>= l_0_1_7 0.0))
(assert
 (>= l_0_1_9 0.0))
(assert
 (let ((?x391 (* l_0_2_9 l_0_2_9)))
 (let ((?x389 (* l_0_2_8 l_0_2_8)))
 (let ((?x381 (* l_0_2_4 l_0_2_4)))
 (let ((?x376 (* (/ 3.0 50.0) _a_2_)))
 (let ((?x371 (- (+ (* (* (- _a_0_) l_0_2_1) l_0_2_1) (* (/ 529.0 625.0) _a_0_)) (* _a_1_ (+ (* l_0_2_2 l_0_2_2) (* l_0_2_3 l_0_2_3))))))
 (let ((?x380 (- (+ (- ?x371 (* (* (* 2.0 _a_2_) l_0_2_1) l_0_2_2)) ?x376) (* (* 3.0 l_0_2_4) l_0_2_5))))
 (let ((?x388 (- (- (+ ?x380 ?x381) (* (* 7.0 l_0_2_5) l_0_2_5)) (* (* 7.0 l_0_2_6) l_0_2_6))))
 (= (- (- ?x388 ?x389) ?x391) 0.0)))))))))
(assert
 (let ((?x429 (* l_0_2_6 l_0_2_6)))
 (let ((?x423 (* l_0_2_5 l_0_2_5)))
 (let ((?x444 (* (/ 37.0 2500.0) _a_0_)))
 (let ((?x445 (- (* (- _a_0_) (+ (* l_0_2_2 l_0_2_2) (* l_0_2_3 l_0_2_3))) ?x444)))
 (= (+ (+ ?x445 ?x423) ?x429) 0.0))))))
(assert
 (let ((?x471 (* (/ 1.0 100.0) _a_2_)))
 (let ((?x469 (- (+ (* (* (* (- 2.0) _a_0_) l_0_2_1) l_0_2_2) (* (/ 69.0 625.0) _a_0_)) (* _a_2_ (+ (* l_0_2_2 l_0_2_2) (* l_0_2_3 l_0_2_3))))))
 (let ((?x478 (- (+ (- ?x469 ?x471) (* (* 2.0 l_0_2_4) l_0_2_5)) (* (* (/ 3.0 2.0) l_0_2_5) l_0_2_5))))
 (= (- ?x478 (* (* (/ 3.0 2.0) l_0_2_6) l_0_2_6)) 0.0)))))
(assert
 (= (* (/ 1.0 10000.0) _a_0_) 0.0))
(assert
 (= (* (- (/ 3.0 2500.0)) _a_0_) 0.0))
(assert
 (let ((?x529 (* l_0_2_7 l_0_2_7)))
 (let ((?x528 (- (+ (* (* (- _a_1_) l_0_2_1) l_0_2_1) _a_1_) (* (* 7.0 l_0_2_4) l_0_2_4))))
 (= (- ?x528 ?x529) 0.0))))
(assert
 (let ((?x550 (* (/ 23.0 25.0) _a_2_)))
 (let ((?x548 (- (* (* (* (- 2.0) _a_1_) l_0_2_1) l_0_2_2) (* (* _a_2_ l_0_2_1) l_0_2_1))))
 (let ((?x557 (- (- (+ ?x548 ?x550) (* (* 14.0 l_0_2_4) l_0_2_5)) (* (* (/ 3.0 2.0) l_0_2_4) l_0_2_4))))
 (= (- ?x557 (* (* 2.0 l_0_2_7) l_0_2_8)) 0.0)))))
(assert
 (>= l_0_2_1 0.0))
(assert
 (>= l_0_2_3 0.0))
(assert
 (>= l_0_2_4 0.0))
(assert
 (>= l_0_2_6 0.0))
(assert
 (>= l_0_2_7 0.0))
(assert
 (>= l_0_2_9 0.0))
(check-sat)
(get-model)